(set-logic HORN)
(declare-datatypes ((Nat_0 0)) (((Z_0 ) (S_0 (unS_0 Nat_0)))))
(declare-fun diseqNat_0 (Nat_0 Nat_0) Bool)
(declare-fun unS_1 (Nat_0 Nat_0) Bool)
(declare-fun isZ_0 (Nat_0) Bool)
(declare-fun isS_0 (Nat_0) Bool)
(assert (forall ((x_27 Nat_0) (x_26 Nat_0))
	(=> (= x_27 (S_0 x_26))
	    (unS_1 x_26 x_27))))
(assert (isZ_0 Z_0))
(assert (forall ((x_28 Nat_0))
	(isS_0 (S_0 x_28))))
(assert (forall ((x_29 Nat_0))
	(diseqNat_0 Z_0 (S_0 x_29))))
(assert (forall ((x_30 Nat_0))
	(diseqNat_0 (S_0 x_30) Z_0)))
(assert (forall ((x_31 Nat_0) (x_32 Nat_0))
	(=> (diseqNat_0 x_31 x_32)
	    (diseqNat_0 (S_0 x_31) (S_0 x_32)))))
(declare-fun add_0 (Nat_0 Nat_0 Nat_0) Bool)
(declare-fun minus_0 (Nat_0 Nat_0 Nat_0) Bool)
(declare-fun le_0 (Nat_0 Nat_0) Bool)
(declare-fun ge_0 (Nat_0 Nat_0) Bool)
(declare-fun lt_0 (Nat_0 Nat_0) Bool)
(declare-fun gt_0 (Nat_0 Nat_0) Bool)
(declare-fun mult_0 (Nat_0 Nat_0 Nat_0) Bool)
(declare-fun div_0 (Nat_0 Nat_0 Nat_0) Bool)
(declare-fun mod_0 (Nat_0 Nat_0 Nat_0) Bool)
(assert (forall ((y_0 Nat_0))
	(add_0 y_0 Z_0 y_0)))
(assert (forall ((x_21 Nat_0) (y_0 Nat_0) (r_0 Nat_0))
	(=> (add_0 r_0 x_21 y_0)
	    (add_0 (S_0 r_0) (S_0 x_21) y_0))))
(assert (forall ((y_0 Nat_0))
	(minus_0 Z_0 Z_0 y_0)))
(assert (forall ((x_21 Nat_0) (y_0 Nat_0) (r_0 Nat_0))
	(=> (minus_0 r_0 x_21 y_0)
	    (minus_0 (S_0 r_0) (S_0 x_21) y_0))))
(assert (forall ((y_0 Nat_0))
	(le_0 Z_0 y_0)))
(assert (forall ((x_21 Nat_0) (y_0 Nat_0))
	(=> (le_0 x_21 y_0)
	    (le_0 (S_0 x_21) (S_0 y_0)))))
(assert (forall ((y_0 Nat_0))
	(ge_0 y_0 Z_0)))
(assert (forall ((x_21 Nat_0) (y_0 Nat_0))
	(=> (ge_0 x_21 y_0)
	    (ge_0 (S_0 x_21) (S_0 y_0)))))
(assert (forall ((y_0 Nat_0))
	(lt_0 Z_0 (S_0 y_0))))
(assert (forall ((x_21 Nat_0) (y_0 Nat_0))
	(=> (lt_0 x_21 y_0)
	    (lt_0 (S_0 x_21) (S_0 y_0)))))
(assert (forall ((y_0 Nat_0))
	(gt_0 (S_0 y_0) Z_0)))
(assert (forall ((x_21 Nat_0) (y_0 Nat_0))
	(=> (gt_0 x_21 y_0)
	    (gt_0 (S_0 x_21) (S_0 y_0)))))
(assert (forall ((y_0 Nat_0))
	(mult_0 Z_0 Z_0 y_0)))
(assert (forall ((x_21 Nat_0) (y_0 Nat_0) (r_0 Nat_0) (z_1 Nat_0))
	(=>	(and (mult_0 r_0 x_21 y_0)
			(add_0 z_1 r_0 y_0))
		(mult_0 z_1 (S_0 x_21) y_0))))
(assert (forall ((x_21 Nat_0) (y_0 Nat_0))
	(=> (lt_0 x_21 y_0)
	    (div_0 Z_0 x_21 y_0))))
(assert (forall ((x_21 Nat_0) (y_0 Nat_0) (r_0 Nat_0) (z_1 Nat_0))
	(=>	(and (ge_0 x_21 y_0)
			(minus_0 z_1 x_21 y_0)
			(div_0 r_0 z_1 y_0))
		(div_0 (S_0 r_0) x_21 y_0))))
(assert (forall ((x_21 Nat_0) (y_0 Nat_0))
	(=> (lt_0 x_21 y_0)
	    (mod_0 x_21 x_21 y_0))))
(assert (forall ((x_21 Nat_0) (y_0 Nat_0) (r_0 Nat_0) (z_1 Nat_0))
	(=>	(and (ge_0 x_21 y_0)
			(minus_0 z_1 x_21 y_0)
			(mod_0 r_0 z_1 y_0))
		(mod_0 r_0 x_21 y_0))))
(declare-fun and_0 (Bool Bool Bool) Bool)
(declare-fun or_0 (Bool Bool Bool) Bool)
(declare-fun hence_0 (Bool Bool Bool) Bool)
(declare-fun not_0 (Bool Bool) Bool)
(assert (and_0 false false false))
(assert (and_0 false true false))
(assert (and_0 false false true))
(assert (and_0 true true true))
(assert (or_0 false false false))
(assert (or_0 true true false))
(assert (or_0 true false true))
(assert (or_0 true true true))
(assert (hence_0 true false false))
(assert (hence_0 false true false))
(assert (hence_0 true false true))
(assert (hence_0 true true true))
(assert (not_0 true false))
(assert (not_0 false true))
(declare-fun fibo_0 (Nat_0 Nat_0) Bool)
(declare-fun fibo_1 (Nat_0 Bool Nat_0) Bool)
(declare-fun fibo_2 (Nat_0 Bool Bool Nat_0) Bool)
(declare-fun main_0 (Bool) Bool)
(declare-fun main_1 (Bool Bool) Bool)
(assert (forall ((x_0 Nat_0) (x_1 Nat_0))
	(=>	(and (fibo_1 x_0 true x_1)
			(lt_0 x_0 (S_0 Z_0)))
		(fibo_0 x_0 x_1))))
(assert (forall ((x_0 Nat_0) (x_1 Nat_0))
	(=>	(and (fibo_1 x_0 false x_1)
			(ge_0 x_0 (S_0 Z_0)))
		(fibo_0 x_0 x_1))))
(assert (forall ((x_2 Nat_0) (x_3 Nat_0))
	(=>	(and (fibo_2 x_2 false true x_3)
			(= x_2 (S_0 Z_0)))
		(fibo_1 x_2 false x_3))))
(assert (forall ((x_2 Nat_0) (x_3 Nat_0))
	(=>	(and (fibo_2 x_2 false false x_3)
			(diseqNat_0 x_2 (S_0 Z_0)))
		(fibo_1 x_2 false x_3))))
(assert (forall ((x_4 Nat_0) (x_5 Nat_0))
	(=> (= x_5 Z_0)
	    (fibo_1 x_4 true x_5))))
(assert (forall ((x_6 Nat_0) (x_7 Bool) (x_8 Nat_0) (x_9 Nat_0) (x_10 Nat_0) (x_22 Nat_0) (x_23 Nat_0) (x_24 Nat_0))
	(=>	(and (fibo_0 x_22 x_9)
			(fibo_0 x_23 x_10)
			(= x_8 x_24)
			(minus_0 x_22 x_6 (S_0 Z_0))
			(minus_0 x_23 x_6 (S_0 (S_0 Z_0)))
			(add_0 x_24 x_9 x_10))
		(fibo_2 x_6 x_7 false x_8))))
(assert (forall ((x_11 Nat_0) (x_12 Bool) (x_13 Nat_0))
	(=> (= x_13 (S_0 Z_0))
	    (fibo_2 x_11 x_12 true x_13))))
(assert (forall ((x_14 Bool) (x_15 Nat_0) (x_19 Bool))
	(=>	(and (fibo_0 (S_0 (S_0 (S_0 (S_0 (S_0 (S_0 (S_0 (S_0 (S_0 (S_0 Z_0)))))))))) x_15)
			(main_1 x_19 x_14)
			(= x_15 (S_0 (S_0 (S_0 (S_0 (S_0 (S_0 (S_0 (S_0 (S_0 (S_0 (S_0 (S_0 (S_0 (S_0 (S_0 (S_0 (S_0 (S_0 (S_0 (S_0 (S_0 (S_0 (S_0 (S_0 (S_0 (S_0 (S_0 (S_0 (S_0 (S_0 (S_0 (S_0 (S_0 (S_0 (S_0 (S_0 (S_0 (S_0 (S_0 (S_0 (S_0 (S_0 (S_0 (S_0 (S_0 (S_0 (S_0 (S_0 (S_0 (S_0 (S_0 (S_0 (S_0 (S_0 (S_0 Z_0))))))))))))))))))))))))))))))))))))))))))))))))))))))))
			(not_0 x_19 true))
		(main_0 x_14))))
(assert (forall ((x_14 Bool) (x_15 Nat_0) (x_20 Bool))
	(=>	(and (fibo_0 (S_0 (S_0 (S_0 (S_0 (S_0 (S_0 (S_0 (S_0 (S_0 (S_0 Z_0)))))))))) x_15)
			(main_1 x_20 x_14)
			(diseqNat_0 x_15 (S_0 (S_0 (S_0 (S_0 (S_0 (S_0 (S_0 (S_0 (S_0 (S_0 (S_0 (S_0 (S_0 (S_0 (S_0 (S_0 (S_0 (S_0 (S_0 (S_0 (S_0 (S_0 (S_0 (S_0 (S_0 (S_0 (S_0 (S_0 (S_0 (S_0 (S_0 (S_0 (S_0 (S_0 (S_0 (S_0 (S_0 (S_0 (S_0 (S_0 (S_0 (S_0 (S_0 (S_0 (S_0 (S_0 (S_0 (S_0 (S_0 (S_0 (S_0 (S_0 (S_0 (S_0 (S_0 Z_0))))))))))))))))))))))))))))))))))))))))))))))))))))))))
			(not_0 x_20 false))
		(main_0 x_14))))
(assert (forall ((x_16 Bool))
	(=> (= x_16 false)
	    (main_1 false x_16))))
(assert (forall ((x_17 Bool))
	(=> (= x_17 true)
	    (main_1 true x_17))))
(assert (forall ((x_18 Nat_0))
	(=> (main_0 true)
	    false)))
(check-sat)
